jobs  (incl. supersource/sink ):	52
RESOURCES
- renewable                 : 2 R
- nonrenewable              : 2 N
- doubly constrained        : 0 D
************************************************************************
PRECEDENCE RELATIONS:
jobnr.    #modes  #successors   successors
1	1	5		2 3 4 5 14 
2	9	6		12 11 10 9 8 6 
3	9	5		13 11 10 9 8 
4	9	5		19 17 12 9 7 
5	9	3		12 10 9 
6	9	4		21 18 16 13 
7	9	3		26 16 15 
8	9	5		26 22 21 20 17 
9	9	4		26 22 18 15 
10	9	4		22 18 17 15 
11	9	3		26 24 16 
12	9	4		25 22 21 18 
13	9	3		27 26 17 
14	9	3		27 22 17 
15	9	4		29 27 25 21 
16	9	3		29 22 20 
17	9	4		29 25 24 23 
18	9	4		29 28 27 23 
19	9	4		33 28 26 25 
20	9	3		28 27 25 
21	9	2		24 23 
22	9	2		28 23 
23	9	4		36 33 31 30 
24	9	3		33 32 28 
25	9	4		39 36 31 30 
26	9	3		37 31 29 
27	9	7		45 38 37 36 35 34 33 
28	9	5		45 39 37 36 31 
29	9	5		39 38 36 35 32 
30	9	2		37 32 
31	9	3		38 35 34 
32	9	4		48 45 42 34 
33	9	6		48 46 44 41 40 39 
34	9	5		51 46 44 41 40 
35	9	4		48 46 42 41 
36	9	4		51 48 41 40 
37	9	4		51 47 44 40 
38	9	2		42 40 
39	9	2		51 43 
40	9	1		43 
41	9	1		43 
42	9	1		43 
43	9	2		50 49 
44	9	2		50 49 
45	9	2		51 50 
46	9	1		47 
47	9	1		49 
48	9	1		49 
49	9	1		52 
50	9	1		52 
51	9	1		52 
52	1	0		
************************************************************************
REQUESTS/DURATIONS
jobnr.	mode	dur	R1	R2	N1	N2	
------------------------------------------------------------------------
1	1	0	0	0	0	0	
2	1	7	5	5	15	25	
	2	8	5	4	14	24	
	3	20	5	4	14	23	
	4	21	5	4	13	24	
	5	25	5	3	11	24	
	6	26	5	3	11	23	
	7	27	5	3	9	22	
	8	29	5	3	8	23	
	9	30	5	3	8	22	
3	1	4	2	4	15	27	
	2	7	2	4	14	23	
	3	10	2	3	13	20	
	4	11	2	3	13	19	
	5	12	2	2	12	13	
	6	21	2	2	11	13	
	7	22	2	2	9	7	
	8	25	2	1	9	5	
	9	26	2	1	8	3	
4	1	7	5	3	29	10	
	2	8	4	3	29	10	
	3	9	4	3	27	10	
	4	16	4	3	26	10	
	5	18	3	3	26	10	
	6	19	3	3	24	10	
	7	20	2	3	23	10	
	8	21	2	3	22	10	
	9	30	2	3	22	9	
5	1	2	5	4	8	17	
	2	13	5	4	8	16	
	3	15	5	4	8	15	
	4	18	5	4	8	14	
	5	23	5	4	8	13	
	6	25	5	4	8	12	
	7	26	5	4	8	11	
	8	29	5	4	8	10	
	9	30	5	4	8	9	
6	1	1	4	5	26	15	
	2	7	3	4	24	15	
	3	9	3	4	24	14	
	4	10	3	3	23	15	
	5	16	3	2	22	15	
	6	20	2	2	20	15	
	7	22	2	1	19	15	
	8	23	2	1	18	15	
	9	26	2	1	17	15	
7	1	5	4	1	26	29	
	2	6	3	1	25	26	
	3	7	3	1	24	24	
	4	19	2	1	22	20	
	5	20	2	1	22	18	
	6	21	2	1	21	17	
	7	22	1	1	20	12	
	8	29	1	1	19	11	
	9	30	1	1	19	8	
8	1	5	3	2	10	28	
	2	9	3	1	9	27	
	3	11	3	1	9	26	
	4	15	2	1	8	27	
	5	16	2	1	7	27	
	6	17	2	1	6	27	
	7	20	2	1	5	27	
	8	21	1	1	4	27	
	9	27	1	1	2	27	
9	1	6	3	4	10	27	
	2	18	3	4	10	26	
	3	19	3	4	10	25	
	4	20	2	3	9	27	
	5	21	2	3	9	26	
	6	22	2	2	8	26	
	7	23	2	2	7	26	
	8	24	1	1	7	26	
	9	27	1	1	7	25	
10	1	2	4	4	23	14	
	2	3	3	4	23	13	
	3	8	3	3	23	13	
	4	12	3	3	23	12	
	5	13	2	2	23	12	
	6	17	2	2	23	11	
	7	20	2	2	23	10	
	8	23	2	1	23	11	
	9	29	2	1	23	10	
11	1	1	2	5	27	22	
	2	7	2	4	27	22	
	3	8	2	4	26	21	
	4	12	2	4	24	21	
	5	13	2	4	24	20	
	6	14	2	3	23	20	
	7	18	2	3	21	20	
	8	24	2	3	21	19	
	9	29	2	3	20	19	
12	1	2	4	2	23	14	
	2	3	3	2	22	12	
	3	5	3	2	20	9	
	4	8	3	2	18	8	
	5	9	2	2	15	7	
	6	16	2	2	14	6	
	7	19	2	2	10	4	
	8	22	1	2	10	3	
	9	26	1	2	6	2	
13	1	1	4	5	22	23	
	2	3	4	4	21	20	
	3	4	4	4	21	19	
	4	5	4	4	19	18	
	5	9	4	4	17	18	
	6	11	4	3	17	15	
	7	12	4	3	14	14	
	8	14	4	3	13	13	
	9	28	4	3	12	13	
14	1	4	4	5	18	15	
	2	9	3	4	18	12	
	3	10	3	4	18	11	
	4	11	2	4	18	11	
	5	12	2	3	17	9	
	6	13	2	3	17	7	
	7	14	1	2	17	6	
	8	17	1	2	17	5	
	9	29	1	2	17	4	
15	1	1	4	3	26	14	
	2	3	4	2	25	13	
	3	5	4	2	21	13	
	4	7	4	2	20	11	
	5	8	3	2	17	11	
	6	12	3	2	14	10	
	7	14	3	2	12	9	
	8	24	3	2	9	8	
	9	25	3	2	9	7	
16	1	2	5	3	19	18	
	2	6	5	2	16	15	
	3	7	5	2	16	14	
	4	10	5	2	13	14	
	5	17	5	2	11	12	
	6	21	5	1	11	10	
	7	23	5	1	9	9	
	8	26	5	1	7	9	
	9	30	5	1	7	7	
17	1	1	3	2	11	25	
	2	4	3	2	11	22	
	3	5	3	2	11	21	
	4	6	3	2	11	19	
	5	8	3	1	10	16	
	6	10	3	1	10	14	
	7	17	3	1	10	13	
	8	19	3	1	10	11	
	9	27	3	1	10	9	
18	1	6	4	3	26	29	
	2	18	4	3	25	28	
	3	19	4	3	22	27	
	4	20	4	3	21	26	
	5	22	4	2	18	24	
	6	25	4	2	17	24	
	7	26	4	2	16	22	
	8	28	4	2	13	22	
	9	30	4	2	11	21	
19	1	2	4	3	20	27	
	2	4	3	3	17	27	
	3	9	3	3	16	27	
	4	10	3	2	13	27	
	5	13	3	2	12	27	
	6	16	2	2	10	27	
	7	18	2	1	7	27	
	8	24	2	1	5	27	
	9	27	2	1	3	27	
20	1	1	1	5	27	26	
	2	2	1	4	25	22	
	3	3	1	4	22	20	
	4	4	1	4	16	18	
	5	5	1	4	13	15	
	6	12	1	4	13	12	
	7	14	1	4	7	10	
	8	25	1	4	5	4	
	9	27	1	4	3	2	
21	1	3	2	3	14	30	
	2	5	2	3	14	29	
	3	6	2	3	14	28	
	4	9	2	3	14	27	
	5	13	2	2	14	29	
	6	18	2	2	14	28	
	7	23	2	2	14	27	
	8	24	2	2	14	26	
	9	29	2	2	14	25	
22	1	3	4	5	27	9	
	2	8	4	4	27	9	
	3	9	4	4	27	8	
	4	13	3	4	27	6	
	5	15	3	4	27	5	
	6	19	3	4	26	5	
	7	22	2	4	26	4	
	8	23	2	4	26	3	
	9	30	2	4	26	1	
23	1	1	2	5	3	21	
	2	7	2	4	2	20	
	3	8	2	3	2	19	
	4	12	2	3	2	18	
	5	16	2	3	2	17	
	6	18	2	2	1	15	
	7	20	2	2	1	13	
	8	22	2	1	1	12	
	9	26	2	1	1	11	
24	1	4	4	3	21	13	
	2	8	3	3	17	12	
	3	9	3	3	16	12	
	4	10	2	3	14	12	
	5	11	2	2	12	12	
	6	23	2	2	11	12	
	7	25	2	2	7	12	
	8	29	1	2	5	12	
	9	30	1	2	4	12	
25	1	1	4	2	24	17	
	2	6	4	1	24	17	
	3	9	4	1	24	16	
	4	11	4	1	24	15	
	5	14	4	1	24	14	
	6	24	4	1	24	13	
	7	25	4	1	24	12	
	8	29	4	1	24	11	
	9	30	4	1	24	10	
26	1	4	2	5	11	30	
	2	5	2	5	11	29	
	3	15	2	5	10	29	
	4	18	2	5	9	28	
	5	19	2	5	9	27	
	6	24	2	5	8	28	
	7	25	2	5	7	28	
	8	26	2	5	7	27	
	9	30	2	5	6	27	
27	1	2	1	3	29	5	
	2	7	1	3	27	4	
	3	8	1	3	25	4	
	4	11	1	3	22	4	
	5	13	1	2	21	4	
	6	17	1	2	19	4	
	7	22	1	2	18	4	
	8	23	1	2	16	4	
	9	29	1	2	15	4	
28	1	9	3	3	22	14	
	2	10	2	3	22	13	
	3	13	2	3	22	11	
	4	17	2	3	22	10	
	5	21	2	2	22	10	
	6	22	2	2	22	9	
	7	24	2	2	22	8	
	8	25	2	2	22	7	
	9	28	2	2	22	6	
29	1	2	4	3	6	20	
	2	8	3	2	5	15	
	3	9	3	2	5	14	
	4	13	3	2	5	12	
	5	15	3	2	4	10	
	6	16	2	1	3	7	
	7	18	2	1	3	6	
	8	20	2	1	3	5	
	9	28	2	1	2	2	
30	1	5	2	4	11	30	
	2	7	1	4	11	28	
	3	12	1	4	11	25	
	4	14	1	4	10	25	
	5	18	1	4	10	24	
	6	20	1	4	9	22	
	7	25	1	4	8	20	
	8	26	1	4	8	18	
	9	29	1	4	8	17	
31	1	3	1	4	27	24	
	2	4	1	4	23	24	
	3	5	1	4	21	23	
	4	8	1	3	21	23	
	5	10	1	2	18	22	
	6	11	1	2	16	21	
	7	15	1	1	13	21	
	8	24	1	1	9	21	
	9	30	1	1	9	20	
32	1	1	3	2	19	17	
	2	4	2	2	17	15	
	3	7	2	2	17	13	
	4	8	2	2	15	12	
	5	11	2	1	11	9	
	6	14	2	1	10	7	
	7	15	2	1	7	5	
	8	18	2	1	6	3	
	9	22	2	1	4	2	
33	1	4	3	3	23	22	
	2	8	3	2	22	20	
	3	11	3	2	20	18	
	4	13	3	2	20	15	
	5	14	3	2	19	12	
	6	18	3	2	18	10	
	7	23	3	2	17	9	
	8	24	3	2	16	8	
	9	26	3	2	16	6	
34	1	4	4	3	19	28	
	2	11	3	2	19	22	
	3	12	3	2	19	20	
	4	13	3	2	19	17	
	5	17	2	2	19	14	
	6	23	2	1	19	11	
	7	24	2	1	19	10	
	8	29	2	1	19	5	
	9	30	2	1	19	2	
35	1	4	3	4	22	12	
	2	5	3	4	19	11	
	3	6	3	4	17	11	
	4	9	3	4	16	10	
	5	10	2	4	15	9	
	6	16	2	3	14	8	
	7	18	2	3	12	7	
	8	22	2	3	8	5	
	9	30	2	3	8	4	
36	1	2	4	5	25	2	
	2	9	4	4	22	2	
	3	12	4	4	21	2	
	4	14	4	4	21	1	
	5	17	4	4	19	2	
	6	19	4	4	18	2	
	7	20	4	4	17	2	
	8	25	4	4	15	2	
	9	30	4	4	15	1	
37	1	1	4	5	25	25	
	2	2	3	4	21	19	
	3	8	3	4	21	18	
	4	12	3	4	19	14	
	5	18	2	3	16	13	
	6	23	2	3	14	10	
	7	25	2	2	12	7	
	8	26	2	2	10	5	
	9	30	2	2	10	3	
38	1	4	5	5	23	19	
	2	6	4	4	22	19	
	3	10	4	3	20	19	
	4	12	4	3	19	19	
	5	14	3	3	17	18	
	6	20	3	2	16	18	
	7	25	3	1	14	17	
	8	27	3	1	11	17	
	9	30	3	1	11	16	
39	1	2	3	5	16	20	
	2	4	3	4	15	19	
	3	5	3	4	12	19	
	4	9	3	4	11	18	
	5	13	3	4	10	17	
	6	14	3	4	9	16	
	7	15	3	4	8	16	
	8	16	3	4	5	14	
	9	21	3	4	4	14	
40	1	2	4	5	17	27	
	2	7	4	4	16	26	
	3	8	4	4	14	23	
	4	9	4	3	13	19	
	5	12	3	3	11	18	
	6	13	3	3	10	16	
	7	14	3	2	9	15	
	8	15	3	2	7	10	
	9	21	3	2	6	9	
41	1	1	2	2	13	26	
	2	2	2	2	12	26	
	3	7	2	2	11	26	
	4	8	2	2	10	26	
	5	9	2	2	10	25	
	6	12	2	2	9	25	
	7	15	2	2	9	24	
	8	25	2	2	9	23	
	9	26	2	2	8	25	
42	1	1	4	4	20	22	
	2	2	4	4	17	21	
	3	5	4	4	16	19	
	4	6	3	4	14	19	
	5	10	3	4	12	15	
	6	12	3	4	10	14	
	7	13	3	4	10	13	
	8	14	2	4	6	10	
	9	27	2	4	5	9	
43	1	6	3	2	12	21	
	2	11	3	1	11	20	
	3	13	3	1	11	19	
	4	16	3	1	10	19	
	5	19	3	1	10	16	
	6	20	3	1	10	15	
	7	22	3	1	9	14	
	8	23	3	1	9	13	
	9	30	3	1	9	12	
44	1	7	4	2	26	28	
	2	10	4	1	24	27	
	3	11	4	1	20	26	
	4	13	4	1	20	24	
	5	14	4	1	17	24	
	6	15	4	1	15	23	
	7	16	4	1	15	22	
	8	17	4	1	13	20	
	9	21	4	1	11	19	
45	1	1	2	2	8	29	
	2	9	1	2	8	29	
	3	10	1	2	8	28	
	4	11	1	2	8	27	
	5	16	1	2	8	26	
	6	18	1	2	8	25	
	7	21	1	2	8	24	
	8	22	1	2	8	23	
	9	27	1	2	8	22	
46	1	2	3	3	25	23	
	2	3	2	3	19	22	
	3	11	2	3	19	21	
	4	14	2	3	16	20	
	5	18	1	2	13	19	
	6	21	1	2	11	17	
	7	22	1	1	7	15	
	8	23	1	1	6	13	
	9	24	1	1	2	13	
47	1	1	3	5	25	13	
	2	2	3	4	22	11	
	3	3	3	4	20	11	
	4	4	3	4	16	11	
	5	5	3	3	14	9	
	6	13	2	3	12	9	
	7	23	2	2	11	9	
	8	24	2	2	8	7	
	9	26	2	2	6	7	
48	1	1	3	3	26	17	
	2	4	3	2	24	15	
	3	8	3	2	23	13	
	4	16	3	2	19	12	
	5	18	2	1	18	9	
	6	19	2	1	15	6	
	7	21	2	1	14	5	
	8	22	1	1	13	3	
	9	26	1	1	11	1	
49	1	7	5	5	18	16	
	2	9	4	4	15	16	
	3	13	4	3	14	16	
	4	16	4	3	13	16	
	5	19	4	2	12	16	
	6	23	3	2	9	16	
	7	25	3	2	9	15	
	8	26	3	1	6	16	
	9	28	3	1	6	15	
50	1	6	3	5	22	16	
	2	7	3	4	20	15	
	3	10	3	4	17	15	
	4	11	3	4	15	14	
	5	13	3	3	12	13	
	6	20	3	3	12	12	
	7	23	3	2	8	12	
	8	26	3	2	7	10	
	9	27	3	2	6	10	
51	1	14	5	3	26	27	
	2	18	4	3	22	24	
	3	19	4	3	22	23	
	4	21	4	3	20	21	
	5	24	4	3	16	20	
	6	26	4	3	16	19	
	7	28	4	3	14	17	
	8	29	4	3	10	15	
	9	30	4	3	9	14	
52	1	0	0	0	0	0	
************************************************************************

 RESOURCE AVAILABILITIES 
	R 1	R 2	N 1	N 2
	22	20	634	707

************************************************************************
